(set-logic QF_LRA)
(declare-fun X0 () Real )
(declare-fun Y0 () Real )
(declare-fun X1 () Real )
(declare-fun Y1 () Real )
(declare-fun X2 () Real )
(declare-fun Y2 () Real )
(declare-fun X3 () Real )
(declare-fun Y3 () Real )
(declare-fun X4 () Real )
(declare-fun Y4 () Real )
(declare-fun X5 () Real )
(declare-fun Y5 () Real )
(declare-fun X6 () Real )
(declare-fun Y6 () Real )
(declare-fun X7 () Real )
(declare-fun Y7 () Real )
(declare-fun X8 () Real )
(declare-fun Y8 () Real )
(declare-fun X9 () Real )
(declare-fun Y9 () Real )
(declare-fun X10 () Real )
(declare-fun Y10 () Real )
(declare-fun X11 () Real )
(declare-fun Y11 () Real )
(declare-fun X12 () Real )
(declare-fun Y12 () Real )
(declare-fun X13 () Real )
(declare-fun Y13 () Real )
(declare-fun X14 () Real )
(declare-fun Y14 () Real )
(declare-fun Z () Real )
(assert ( and  
( or ( <= ( + X0 5 ) X1 )  ( <= ( + X1 51 ) X0 )  ( <= ( + Y0 81 ) Y1 )  ( <= ( + Y1 55 ) Y0 )  )
( or ( <= ( + X0 5 ) X2 )  ( <= ( + X2 72 ) X0 )  ( <= ( + Y0 81 ) Y2 )  ( <= ( + Y2 15 ) Y0 )  )
( or ( <= ( + X0 5 ) X3 )  ( <= ( + X3 63 ) X0 )  ( <= ( + Y0 81 ) Y3 )  ( <= ( + Y3 96 ) Y0 )  )
( or ( <= ( + X0 5 ) X4 )  ( <= ( + X4 26 ) X0 )  ( <= ( + Y0 81 ) Y4 )  ( <= ( + Y4 48 ) Y0 )  )
( or ( <= ( + X0 5 ) X5 )  ( <= ( + X5 58 ) X0 )  ( <= ( + Y0 81 ) Y5 )  ( <= ( + Y5 100 ) Y0 )  )
( or ( <= ( + X0 5 ) X6 )  ( <= ( + X6 13 ) X0 )  ( <= ( + Y0 81 ) Y6 )  ( <= ( + Y6 1 ) Y0 )  )
( or ( <= ( + X0 5 ) X7 )  ( <= ( + X7 56 ) X0 )  ( <= ( + Y0 81 ) Y7 )  ( <= ( + Y7 1 ) Y0 )  )
( or ( <= ( + X0 5 ) X8 )  ( <= ( + X8 33 ) X0 )  ( <= ( + Y0 81 ) Y8 )  ( <= ( + Y8 66 ) Y0 )  )
( or ( <= ( + X0 5 ) X9 )  ( <= ( + X9 75 ) X0 )  ( <= ( + Y0 81 ) Y9 )  ( <= ( + Y9 3 ) Y0 )  )
( or ( <= ( + X0 5 ) X10 )  ( <= ( + X10 26 ) X0 )  ( <= ( + Y0 81 ) Y10 )  ( <= ( + Y10 76 ) Y0 )  )
( or ( <= ( + X0 5 ) X11 )  ( <= ( + X11 43 ) X0 )  ( <= ( + Y0 81 ) Y11 )  ( <= ( + Y11 54 ) Y0 )  )
( or ( <= ( + X0 5 ) X12 )  ( <= ( + X12 11 ) X0 )  ( <= ( + Y0 81 ) Y12 )  ( <= ( + Y12 73 ) Y0 )  )
( or ( <= ( + X0 5 ) X13 )  ( <= ( + X13 59 ) X0 )  ( <= ( + Y0 81 ) Y13 )  ( <= ( + Y13 49 ) Y0 )  )
( or ( <= ( + X0 5 ) X14 )  ( <= ( + X14 52 ) X0 )  ( <= ( + Y0 81 ) Y14 )  ( <= ( + Y14 92 ) Y0 )  )
( or ( <= ( + X1 51 ) X2 )  ( <= ( + X2 72 ) X1 )  ( <= ( + Y1 55 ) Y2 )  ( <= ( + Y2 15 ) Y1 )  )
( or ( <= ( + X1 51 ) X3 )  ( <= ( + X3 63 ) X1 )  ( <= ( + Y1 55 ) Y3 )  ( <= ( + Y3 96 ) Y1 )  )
( or ( <= ( + X1 51 ) X4 )  ( <= ( + X4 26 ) X1 )  ( <= ( + Y1 55 ) Y4 )  ( <= ( + Y4 48 ) Y1 )  )
( or ( <= ( + X1 51 ) X5 )  ( <= ( + X5 58 ) X1 )  ( <= ( + Y1 55 ) Y5 )  ( <= ( + Y5 100 ) Y1 )  )
( or ( <= ( + X1 51 ) X6 )  ( <= ( + X6 13 ) X1 )  ( <= ( + Y1 55 ) Y6 )  ( <= ( + Y6 1 ) Y1 )  )
( or ( <= ( + X1 51 ) X7 )  ( <= ( + X7 56 ) X1 )  ( <= ( + Y1 55 ) Y7 )  ( <= ( + Y7 1 ) Y1 )  )
( or ( <= ( + X1 51 ) X8 )  ( <= ( + X8 33 ) X1 )  ( <= ( + Y1 55 ) Y8 )  ( <= ( + Y8 66 ) Y1 )  )
( or ( <= ( + X1 51 ) X9 )  ( <= ( + X9 75 ) X1 )  ( <= ( + Y1 55 ) Y9 )  ( <= ( + Y9 3 ) Y1 )  )
( or ( <= ( + X1 51 ) X10 )  ( <= ( + X10 26 ) X1 )  ( <= ( + Y1 55 ) Y10 )  ( <= ( + Y10 76 ) Y1 )  )
( or ( <= ( + X1 51 ) X11 )  ( <= ( + X11 43 ) X1 )  ( <= ( + Y1 55 ) Y11 )  ( <= ( + Y11 54 ) Y1 )  )
( or ( <= ( + X1 51 ) X12 )  ( <= ( + X12 11 ) X1 )  ( <= ( + Y1 55 ) Y12 )  ( <= ( + Y12 73 ) Y1 )  )
( or ( <= ( + X1 51 ) X13 )  ( <= ( + X13 59 ) X1 )  ( <= ( + Y1 55 ) Y13 )  ( <= ( + Y13 49 ) Y1 )  )
( or ( <= ( + X1 51 ) X14 )  ( <= ( + X14 52 ) X1 )  ( <= ( + Y1 55 ) Y14 )  ( <= ( + Y14 92 ) Y1 )  )
( or ( <= ( + X2 72 ) X3 )  ( <= ( + X3 63 ) X2 )  ( <= ( + Y2 15 ) Y3 )  ( <= ( + Y3 96 ) Y2 )  )
( or ( <= ( + X2 72 ) X4 )  ( <= ( + X4 26 ) X2 )  ( <= ( + Y2 15 ) Y4 )  ( <= ( + Y4 48 ) Y2 )  )
( or ( <= ( + X2 72 ) X5 )  ( <= ( + X5 58 ) X2 )  ( <= ( + Y2 15 ) Y5 )  ( <= ( + Y5 100 ) Y2 )  )
( or ( <= ( + X2 72 ) X6 )  ( <= ( + X6 13 ) X2 )  ( <= ( + Y2 15 ) Y6 )  ( <= ( + Y6 1 ) Y2 )  )
( or ( <= ( + X2 72 ) X7 )  ( <= ( + X7 56 ) X2 )  ( <= ( + Y2 15 ) Y7 )  ( <= ( + Y7 1 ) Y2 )  )
( or ( <= ( + X2 72 ) X8 )  ( <= ( + X8 33 ) X2 )  ( <= ( + Y2 15 ) Y8 )  ( <= ( + Y8 66 ) Y2 )  )
( or ( <= ( + X2 72 ) X9 )  ( <= ( + X9 75 ) X2 )  ( <= ( + Y2 15 ) Y9 )  ( <= ( + Y9 3 ) Y2 )  )
( or ( <= ( + X2 72 ) X10 )  ( <= ( + X10 26 ) X2 )  ( <= ( + Y2 15 ) Y10 )  ( <= ( + Y10 76 ) Y2 )  )
( or ( <= ( + X2 72 ) X11 )  ( <= ( + X11 43 ) X2 )  ( <= ( + Y2 15 ) Y11 )  ( <= ( + Y11 54 ) Y2 )  )
( or ( <= ( + X2 72 ) X12 )  ( <= ( + X12 11 ) X2 )  ( <= ( + Y2 15 ) Y12 )  ( <= ( + Y12 73 ) Y2 )  )
( or ( <= ( + X2 72 ) X13 )  ( <= ( + X13 59 ) X2 )  ( <= ( + Y2 15 ) Y13 )  ( <= ( + Y13 49 ) Y2 )  )
( or ( <= ( + X2 72 ) X14 )  ( <= ( + X14 52 ) X2 )  ( <= ( + Y2 15 ) Y14 )  ( <= ( + Y14 92 ) Y2 )  )
( or ( <= ( + X3 63 ) X4 )  ( <= ( + X4 26 ) X3 )  ( <= ( + Y3 96 ) Y4 )  ( <= ( + Y4 48 ) Y3 )  )
( or ( <= ( + X3 63 ) X5 )  ( <= ( + X5 58 ) X3 )  ( <= ( + Y3 96 ) Y5 )  ( <= ( + Y5 100 ) Y3 )  )
( or ( <= ( + X3 63 ) X6 )  ( <= ( + X6 13 ) X3 )  ( <= ( + Y3 96 ) Y6 )  ( <= ( + Y6 1 ) Y3 )  )
( or ( <= ( + X3 63 ) X7 )  ( <= ( + X7 56 ) X3 )  ( <= ( + Y3 96 ) Y7 )  ( <= ( + Y7 1 ) Y3 )  )
( or ( <= ( + X3 63 ) X8 )  ( <= ( + X8 33 ) X3 )  ( <= ( + Y3 96 ) Y8 )  ( <= ( + Y8 66 ) Y3 )  )
( or ( <= ( + X3 63 ) X9 )  ( <= ( + X9 75 ) X3 )  ( <= ( + Y3 96 ) Y9 )  ( <= ( + Y9 3 ) Y3 )  )
( or ( <= ( + X3 63 ) X10 )  ( <= ( + X10 26 ) X3 )  ( <= ( + Y3 96 ) Y10 )  ( <= ( + Y10 76 ) Y3 )  )
( or ( <= ( + X3 63 ) X11 )  ( <= ( + X11 43 ) X3 )  ( <= ( + Y3 96 ) Y11 )  ( <= ( + Y11 54 ) Y3 )  )
( or ( <= ( + X3 63 ) X12 )  ( <= ( + X12 11 ) X3 )  ( <= ( + Y3 96 ) Y12 )  ( <= ( + Y12 73 ) Y3 )  )
( or ( <= ( + X3 63 ) X13 )  ( <= ( + X13 59 ) X3 )  ( <= ( + Y3 96 ) Y13 )  ( <= ( + Y13 49 ) Y3 )  )
( or ( <= ( + X3 63 ) X14 )  ( <= ( + X14 52 ) X3 )  ( <= ( + Y3 96 ) Y14 )  ( <= ( + Y14 92 ) Y3 )  )
( or ( <= ( + X4 26 ) X5 )  ( <= ( + X5 58 ) X4 )  ( <= ( + Y4 48 ) Y5 )  ( <= ( + Y5 100 ) Y4 )  )
( or ( <= ( + X4 26 ) X6 )  ( <= ( + X6 13 ) X4 )  ( <= ( + Y4 48 ) Y6 )  ( <= ( + Y6 1 ) Y4 )  )
( or ( <= ( + X4 26 ) X7 )  ( <= ( + X7 56 ) X4 )  ( <= ( + Y4 48 ) Y7 )  ( <= ( + Y7 1 ) Y4 )  )
( or ( <= ( + X4 26 ) X8 )  ( <= ( + X8 33 ) X4 )  ( <= ( + Y4 48 ) Y8 )  ( <= ( + Y8 66 ) Y4 )  )
( or ( <= ( + X4 26 ) X9 )  ( <= ( + X9 75 ) X4 )  ( <= ( + Y4 48 ) Y9 )  ( <= ( + Y9 3 ) Y4 )  )
( or ( <= ( + X4 26 ) X10 )  ( <= ( + X10 26 ) X4 )  ( <= ( + Y4 48 ) Y10 )  ( <= ( + Y10 76 ) Y4 )  )
( or ( <= ( + X4 26 ) X11 )  ( <= ( + X11 43 ) X4 )  ( <= ( + Y4 48 ) Y11 )  ( <= ( + Y11 54 ) Y4 )  )
( or ( <= ( + X4 26 ) X12 )  ( <= ( + X12 11 ) X4 )  ( <= ( + Y4 48 ) Y12 )  ( <= ( + Y12 73 ) Y4 )  )
( or ( <= ( + X4 26 ) X13 )  ( <= ( + X13 59 ) X4 )  ( <= ( + Y4 48 ) Y13 )  ( <= ( + Y13 49 ) Y4 )  )
( or ( <= ( + X4 26 ) X14 )  ( <= ( + X14 52 ) X4 )  ( <= ( + Y4 48 ) Y14 )  ( <= ( + Y14 92 ) Y4 )  )
( or ( <= ( + X5 58 ) X6 )  ( <= ( + X6 13 ) X5 )  ( <= ( + Y5 100 ) Y6 )  ( <= ( + Y6 1 ) Y5 )  )
( or ( <= ( + X5 58 ) X7 )  ( <= ( + X7 56 ) X5 )  ( <= ( + Y5 100 ) Y7 )  ( <= ( + Y7 1 ) Y5 )  )
( or ( <= ( + X5 58 ) X8 )  ( <= ( + X8 33 ) X5 )  ( <= ( + Y5 100 ) Y8 )  ( <= ( + Y8 66 ) Y5 )  )
( or ( <= ( + X5 58 ) X9 )  ( <= ( + X9 75 ) X5 )  ( <= ( + Y5 100 ) Y9 )  ( <= ( + Y9 3 ) Y5 )  )
( or ( <= ( + X5 58 ) X10 )  ( <= ( + X10 26 ) X5 )  ( <= ( + Y5 100 ) Y10 )  ( <= ( + Y10 76 ) Y5 )  )
( or ( <= ( + X5 58 ) X11 )  ( <= ( + X11 43 ) X5 )  ( <= ( + Y5 100 ) Y11 )  ( <= ( + Y11 54 ) Y5 )  )
( or ( <= ( + X5 58 ) X12 )  ( <= ( + X12 11 ) X5 )  ( <= ( + Y5 100 ) Y12 )  ( <= ( + Y12 73 ) Y5 )  )
( or ( <= ( + X5 58 ) X13 )  ( <= ( + X13 59 ) X5 )  ( <= ( + Y5 100 ) Y13 )  ( <= ( + Y13 49 ) Y5 )  )
( or ( <= ( + X5 58 ) X14 )  ( <= ( + X14 52 ) X5 )  ( <= ( + Y5 100 ) Y14 )  ( <= ( + Y14 92 ) Y5 )  )
( or ( <= ( + X6 13 ) X7 )  ( <= ( + X7 56 ) X6 )  ( <= ( + Y6 1 ) Y7 )  ( <= ( + Y7 1 ) Y6 )  )
( or ( <= ( + X6 13 ) X8 )  ( <= ( + X8 33 ) X6 )  ( <= ( + Y6 1 ) Y8 )  ( <= ( + Y8 66 ) Y6 )  )
( or ( <= ( + X6 13 ) X9 )  ( <= ( + X9 75 ) X6 )  ( <= ( + Y6 1 ) Y9 )  ( <= ( + Y9 3 ) Y6 )  )
( or ( <= ( + X6 13 ) X10 )  ( <= ( + X10 26 ) X6 )  ( <= ( + Y6 1 ) Y10 )  ( <= ( + Y10 76 ) Y6 )  )
( or ( <= ( + X6 13 ) X11 )  ( <= ( + X11 43 ) X6 )  ( <= ( + Y6 1 ) Y11 )  ( <= ( + Y11 54 ) Y6 )  )
( or ( <= ( + X6 13 ) X12 )  ( <= ( + X12 11 ) X6 )  ( <= ( + Y6 1 ) Y12 )  ( <= ( + Y12 73 ) Y6 )  )
( or ( <= ( + X6 13 ) X13 )  ( <= ( + X13 59 ) X6 )  ( <= ( + Y6 1 ) Y13 )  ( <= ( + Y13 49 ) Y6 )  )
( or ( <= ( + X6 13 ) X14 )  ( <= ( + X14 52 ) X6 )  ( <= ( + Y6 1 ) Y14 )  ( <= ( + Y14 92 ) Y6 )  )
( or ( <= ( + X7 56 ) X8 )  ( <= ( + X8 33 ) X7 )  ( <= ( + Y7 1 ) Y8 )  ( <= ( + Y8 66 ) Y7 )  )
( or ( <= ( + X7 56 ) X9 )  ( <= ( + X9 75 ) X7 )  ( <= ( + Y7 1 ) Y9 )  ( <= ( + Y9 3 ) Y7 )  )
( or ( <= ( + X7 56 ) X10 )  ( <= ( + X10 26 ) X7 )  ( <= ( + Y7 1 ) Y10 )  ( <= ( + Y10 76 ) Y7 )  )
( or ( <= ( + X7 56 ) X11 )  ( <= ( + X11 43 ) X7 )  ( <= ( + Y7 1 ) Y11 )  ( <= ( + Y11 54 ) Y7 )  )
( or ( <= ( + X7 56 ) X12 )  ( <= ( + X12 11 ) X7 )  ( <= ( + Y7 1 ) Y12 )  ( <= ( + Y12 73 ) Y7 )  )
( or ( <= ( + X7 56 ) X13 )  ( <= ( + X13 59 ) X7 )  ( <= ( + Y7 1 ) Y13 )  ( <= ( + Y13 49 ) Y7 )  )
( or ( <= ( + X7 56 ) X14 )  ( <= ( + X14 52 ) X7 )  ( <= ( + Y7 1 ) Y14 )  ( <= ( + Y14 92 ) Y7 )  )
( or ( <= ( + X8 33 ) X9 )  ( <= ( + X9 75 ) X8 )  ( <= ( + Y8 66 ) Y9 )  ( <= ( + Y9 3 ) Y8 )  )
( or ( <= ( + X8 33 ) X10 )  ( <= ( + X10 26 ) X8 )  ( <= ( + Y8 66 ) Y10 )  ( <= ( + Y10 76 ) Y8 )  )
( or ( <= ( + X8 33 ) X11 )  ( <= ( + X11 43 ) X8 )  ( <= ( + Y8 66 ) Y11 )  ( <= ( + Y11 54 ) Y8 )  )
( or ( <= ( + X8 33 ) X12 )  ( <= ( + X12 11 ) X8 )  ( <= ( + Y8 66 ) Y12 )  ( <= ( + Y12 73 ) Y8 )  )
( or ( <= ( + X8 33 ) X13 )  ( <= ( + X13 59 ) X8 )  ( <= ( + Y8 66 ) Y13 )  ( <= ( + Y13 49 ) Y8 )  )
( or ( <= ( + X8 33 ) X14 )  ( <= ( + X14 52 ) X8 )  ( <= ( + Y8 66 ) Y14 )  ( <= ( + Y14 92 ) Y8 )  )
( or ( <= ( + X9 75 ) X10 )  ( <= ( + X10 26 ) X9 )  ( <= ( + Y9 3 ) Y10 )  ( <= ( + Y10 76 ) Y9 )  )
( or ( <= ( + X9 75 ) X11 )  ( <= ( + X11 43 ) X9 )  ( <= ( + Y9 3 ) Y11 )  ( <= ( + Y11 54 ) Y9 )  )
( or ( <= ( + X9 75 ) X12 )  ( <= ( + X12 11 ) X9 )  ( <= ( + Y9 3 ) Y12 )  ( <= ( + Y12 73 ) Y9 )  )
( or ( <= ( + X9 75 ) X13 )  ( <= ( + X13 59 ) X9 )  ( <= ( + Y9 3 ) Y13 )  ( <= ( + Y13 49 ) Y9 )  )
( or ( <= ( + X9 75 ) X14 )  ( <= ( + X14 52 ) X9 )  ( <= ( + Y9 3 ) Y14 )  ( <= ( + Y14 92 ) Y9 )  )
( or ( <= ( + X10 26 ) X11 )  ( <= ( + X11 43 ) X10 )  ( <= ( + Y10 76 ) Y11 )  ( <= ( + Y11 54 ) Y10 )  )
( or ( <= ( + X10 26 ) X12 )  ( <= ( + X12 11 ) X10 )  ( <= ( + Y10 76 ) Y12 )  ( <= ( + Y12 73 ) Y10 )  )
( or ( <= ( + X10 26 ) X13 )  ( <= ( + X13 59 ) X10 )  ( <= ( + Y10 76 ) Y13 )  ( <= ( + Y13 49 ) Y10 )  )
( or ( <= ( + X10 26 ) X14 )  ( <= ( + X14 52 ) X10 )  ( <= ( + Y10 76 ) Y14 )  ( <= ( + Y14 92 ) Y10 )  )
( or ( <= ( + X11 43 ) X12 )  ( <= ( + X12 11 ) X11 )  ( <= ( + Y11 54 ) Y12 )  ( <= ( + Y12 73 ) Y11 )  )
( or ( <= ( + X11 43 ) X13 )  ( <= ( + X13 59 ) X11 )  ( <= ( + Y11 54 ) Y13 )  ( <= ( + Y13 49 ) Y11 )  )
( or ( <= ( + X11 43 ) X14 )  ( <= ( + X14 52 ) X11 )  ( <= ( + Y11 54 ) Y14 )  ( <= ( + Y14 92 ) Y11 )  )
( or ( <= ( + X12 11 ) X13 )  ( <= ( + X13 59 ) X12 )  ( <= ( + Y12 73 ) Y13 )  ( <= ( + Y13 49 ) Y12 )  )
( or ( <= ( + X12 11 ) X14 )  ( <= ( + X14 52 ) X12 )  ( <= ( + Y12 73 ) Y14 )  ( <= ( + Y14 92 ) Y12 )  )
( or ( <= ( + X13 59 ) X14 )  ( <= ( + X14 52 ) X13 )  ( <= ( + Y13 49 ) Y14 )  ( <= ( + Y14 92 ) Y13 )  )
( >= X0 0)
( <= ( + X0 5) Z)
( >= Y0 0)
( <= ( + Y0 81 ) 100)
( >= X1 0)
( <= ( + X1 51) Z)
( >= Y1 0)
( <= ( + Y1 55 ) 100)
( >= X2 0)
( <= ( + X2 72) Z)
( >= Y2 0)
( <= ( + Y2 15 ) 100)
( >= X3 0)
( <= ( + X3 63) Z)
( >= Y3 0)
( <= ( + Y3 96 ) 100)
( >= X4 0)
( <= ( + X4 26) Z)
( >= Y4 0)
( <= ( + Y4 48 ) 100)
( >= X5 0)
( <= ( + X5 58) Z)
( >= Y5 0)
( <= ( + Y5 100 ) 100)
( >= X6 0)
( <= ( + X6 13) Z)
( >= Y6 0)
( <= ( + Y6 1 ) 100)
( >= X7 0)
( <= ( + X7 56) Z)
( >= Y7 0)
( <= ( + Y7 1 ) 100)
( >= X8 0)
( <= ( + X8 33) Z)
( >= Y8 0)
( <= ( + Y8 66 ) 100)
( >= X9 0)
( <= ( + X9 75) Z)
( >= Y9 0)
( <= ( + Y9 3 ) 100)
( >= X10 0)
( <= ( + X10 26) Z)
( >= Y10 0)
( <= ( + Y10 76 ) 100)
( >= X11 0)
( <= ( + X11 43) Z)
( >= Y11 0)
( <= ( + Y11 54 ) 100)
( >= X12 0)
( <= ( + X12 11) Z)
( >= Y12 0)
( <= ( + Y12 73 ) 100)
( >= X13 0)
( <= ( + X13 59) Z)
( >= Y13 0)
( <= ( + Y13 49 ) 100)
( >= X14 0)
( <= ( + X14 52) Z)
( >= Y14 0)
( <= ( + Y14 92 ) 100)
) )
(minimize Z)
(check-sat)
